data/hard_6.dzn
num_nodi = 9;
ufficio_postale = 8;
dim_borsa = 20;
max_step = 36;
elenco_lettere = [3, 17, 4, 20, 5, 20, 20, 0, 0];
distanze = [|0, 13, 1, 22, 22, 11, 7, 17, 18
|13, 0, 16, 8, 9, 25, 18, 1, 11
|16, 18, 0, 24, 14, 5, 1, 14, 8
|16, 18, 2, 0, 22, 17, 11, 23, 15
|20, 7, 12, 12, 0, 5, 13, 17, 1
|21, 2, 3, 4, 11, 0, 10, 9, 24
|12, 18, 12, 1, 21, 24, 0, 16, 1
|4, 21, 8, 1, 22, 7, 10, 0, 8
|8, 15, 11, 16, 9, 22, 1, 7, 0
|];
