data/hard_6.lp
node(1..9).

ufficio_postale(8).

dim_borsa(20).

time(1..36).

lettere(1,3).
lettere(2,17).
lettere(3,4).
lettere(4,20).
lettere(5,5).
lettere(6,20).
lettere(7,20).
lettere(8,0).
lettere(9,0).

costo_arco(1, 1, 0).
costo_arco(1, 2, 13).
costo_arco(1, 3, 1).
costo_arco(1, 4, 22).
costo_arco(1, 5, 22).
costo_arco(1, 6, 11).
costo_arco(1, 7, 7).
costo_arco(1, 8, 17).
costo_arco(1, 9, 18).

costo_arco(2, 1, 13).
costo_arco(2, 2, 0).
costo_arco(2, 3, 16).
costo_arco(2, 4, 8).
costo_arco(2, 5, 9).
costo_arco(2, 6, 25).
costo_arco(2, 7, 18).
costo_arco(2, 8, 1).
costo_arco(2, 9, 11).

costo_arco(3, 1, 16).
costo_arco(3, 2, 18).
costo_arco(3, 3, 0).
costo_arco(3, 4, 24).
costo_arco(3, 5, 14).
costo_arco(3, 6, 5).
costo_arco(3, 7, 1).
costo_arco(3, 8, 14).
costo_arco(3, 9, 8).

costo_arco(4, 1, 16).
costo_arco(4, 2, 18).
costo_arco(4, 3, 2).
costo_arco(4, 4, 0).
costo_arco(4, 5, 22).
costo_arco(4, 6, 17).
costo_arco(4, 7, 11).
costo_arco(4, 8, 23).
costo_arco(4, 9, 15).

costo_arco(5, 1, 20).
costo_arco(5, 2, 7).
costo_arco(5, 3, 12).
costo_arco(5, 4, 12).
costo_arco(5, 5, 0).
costo_arco(5, 6, 5).
costo_arco(5, 7, 13).
costo_arco(5, 8, 17).
costo_arco(5, 9, 1).

costo_arco(6, 1, 21).
costo_arco(6, 2, 2).
costo_arco(6, 3, 3).
costo_arco(6, 4, 4).
costo_arco(6, 5, 11).
costo_arco(6, 6, 0).
costo_arco(6, 7, 10).
costo_arco(6, 8, 9).
costo_arco(6, 9, 24).

costo_arco(7, 1, 12).
costo_arco(7, 2, 18).
costo_arco(7, 3, 12).
costo_arco(7, 4, 1).
costo_arco(7, 5, 21).
costo_arco(7, 6, 24).
costo_arco(7, 7, 0).
costo_arco(7, 8, 16).
costo_arco(7, 9, 1).

costo_arco(8, 1, 4).
costo_arco(8, 2, 21).
costo_arco(8, 3, 8).
costo_arco(8, 4, 1).
costo_arco(8, 5, 22).
costo_arco(8, 6, 7).
costo_arco(8, 7, 10).
costo_arco(8, 8, 0).
costo_arco(8, 9, 8).

costo_arco(9, 1, 8).
costo_arco(9, 2, 15).
costo_arco(9, 3, 11).
costo_arco(9, 4, 16).
costo_arco(9, 5, 9).
costo_arco(9, 6, 22).
costo_arco(9, 7, 1).
costo_arco(9, 8, 7).
costo_arco(9, 9, 0).

